#This is Python generated data file for Pyomo model DCLF.py
#_author_:W. Bukhsh
#Time stamp: 2019-10-15 17:48:03.276117
set LE:=
 1 
 2;
set Z:=
1
;
set G:=
G1
G2
G3
G4
G5
G6
G7
G8
G9
G10
G11
G12
G13
G14
G15
G16
G17
G18
G19
G20
G21
G22
G23
G24
G25
G26
G27
G28
G29
G30
G31
G32
G33
;
set D:=
D1
D2
D3
D4
D5
D6
D7
D8
D9
D10
D13
D14
D15
D16
D18
D19
D20
;
set T:= 
1
2
3
4
5
6
7
8
9
10
;
set TRed:= 
2
3
4
5
6
7
8
9
10
;
set GZ:=
G1 1
G2 1
G3 1
G4 1
G5 1
G6 1
G7 1
G8 1
G9 1
G10 1
G11 1
G12 1
G13 1
G14 1
G15 1
G16 1
G17 1
G18 1
G19 1
G20 1
G21 1
G22 1
G23 1
G24 1
G25 1
G26 1
G27 1
G28 1
G29 1
G30 1
G31 1
G32 1
G33 1
;
set DZ:=
D1 1
D2 1
D3 1
D4 1
D5 1
D6 1
D7 1
D8 1
D9 1
D10 1
D13 1
D14 1
D15 1
D16 1
D18 1
D19 1
D20 1
;
param PD:=
D1 1 1.08
D1 2 1.08
D1 3 1.08
D1 4 1.08
D1 5 1.08
D1 6 1.08
D1 7 1.08
D1 8 1.08
D1 9 1.08
D1 10 1.08
D2 1 0.97
D2 2 0.97
D2 3 0.97
D2 4 0.97
D2 5 0.97
D2 6 0.97
D2 7 0.97
D2 8 0.97
D2 9 0.97
D2 10 0.97
D3 1 1.8
D3 2 1.8
D3 3 1.8
D3 4 1.8
D3 5 1.8
D3 6 1.8
D3 7 1.8
D3 8 1.8
D3 9 1.8
D3 10 1.8
D4 1 0.74
D4 2 0.74
D4 3 0.74
D4 4 0.74
D4 5 0.74
D4 6 0.74
D4 7 0.74
D4 8 0.74
D4 9 0.74
D4 10 0.74
D5 1 0.71
D5 2 0.71
D5 3 0.71
D5 4 0.71
D5 5 0.71
D5 6 0.71
D5 7 0.71
D5 8 0.71
D5 9 0.71
D5 10 0.71
D6 1 1.36
D6 2 1.36
D6 3 1.36
D6 4 1.36
D6 5 1.36
D6 6 1.36
D6 7 1.36
D6 8 1.36
D6 9 1.36
D6 10 1.36
D7 1 1.25
D7 2 1.25
D7 3 1.25
D7 4 1.25
D7 5 1.25
D7 6 1.25
D7 7 1.25
D7 8 1.25
D7 9 1.25
D7 10 1.25
D8 1 1.71
D8 2 1.71
D8 3 1.71
D8 4 1.71
D8 5 1.71
D8 6 1.71
D8 7 1.71
D8 8 1.71
D8 9 1.71
D8 10 1.71
D9 1 1.75
D9 2 1.75
D9 3 1.75
D9 4 1.75
D9 5 1.75
D9 6 1.75
D9 7 1.75
D9 8 1.75
D9 9 1.75
D9 10 1.75
D10 1 1.95
D10 2 1.95
D10 3 1.95
D10 4 1.95
D10 5 1.95
D10 6 1.95
D10 7 1.95
D10 8 1.95
D10 9 1.95
D10 10 1.95
D13 1 2.65
D13 2 2.65
D13 3 2.65
D13 4 2.65
D13 5 2.65
D13 6 2.65
D13 7 2.65
D13 8 2.65
D13 9 2.65
D13 10 2.65
D14 1 1.94
D14 2 1.94
D14 3 1.94
D14 4 1.94
D14 5 1.94
D14 6 1.94
D14 7 1.94
D14 8 1.94
D14 9 1.94
D14 10 1.94
D15 1 3.17
D15 2 3.17
D15 3 3.17
D15 4 3.17
D15 5 3.17
D15 6 3.17
D15 7 3.17
D15 8 3.17
D15 9 3.17
D15 10 3.17
D16 1 1.0
D16 2 1.0
D16 3 1.0
D16 4 1.0
D16 5 1.0
D16 6 1.0
D16 7 1.0
D16 8 1.0
D16 9 1.0
D16 10 1.0
D18 1 3.33
D18 2 3.33
D18 3 3.33
D18 4 3.33
D18 5 3.33
D18 6 3.33
D18 7 3.33
D18 8 3.33
D18 9 3.33
D18 10 3.33
D19 1 1.81
D19 2 1.81
D19 3 1.81
D19 4 1.81
D19 5 1.81
D19 6 1.81
D19 7 1.81
D19 8 1.81
D19 9 1.81
D19 10 1.81
D20 1 1.28
D20 2 1.28
D20 3 1.28
D20 4 1.28
D20 5 1.28
D20 6 1.28
D20 7 1.28
D20 8 1.28
D20 9 1.28
D20 10 1.28
;
param VOLL:=
D1 7000.0
D2 7000.0
D3 7000.0
D4 7000.0
D5 7000.0
D6 7000.0
D7 7000.0
D8 7000.0
D9 7000.0
D10 7000.0
D13 7000.0
D14 7000.0
D15 7000.0
D16 7000.0
D18 7000.0
D19 7000.0
D20 7000.0
;
param baseMVA:=
100
;
param PGmin:=
G1 0.16
G2 0.16
G3 0.152
G4 0.152
G5 0.16
G6 0.16
G7 0.152
G8 0.152
G9 0.25
G10 0.25
G11 0.25
G12 0.69
G13 0.69
G14 0.69
G15 0.0
G16 0.024
G17 0.024
G18 0.024
G19 0.024
G20 0.024
G21 0.5429999999999999
G22 0.5429999999999999
G23 1.0
G24 1.0
G25 0.1
G26 0.1
G27 0.1
G28 0.1
G29 0.1
G30 0.1
G31 0.5429999999999999
G32 0.5429999999999999
G33 1.4
;
param PGmax:=
G1 0.2
G2 0.2
G3 0.76
G4 0.76
G5 0.2
G6 0.2
G7 0.76
G8 0.76
G9 1.0
G10 1.0
G11 1.0
G12 1.97
G13 1.97
G14 1.97
G15 0.0
G16 0.12
G17 0.12
G18 0.12
G19 0.12
G20 0.12
G21 1.55
G22 1.55
G23 4.0
G24 4.0
G25 0.5
G26 0.5
G27 0.5
G28 0.5
G29 0.5
G30 0.5
G31 1.55
G32 1.55
G33 3.5
;
param ResReq:=
1 0.2
;
param RampUp:=
G1 1.0
G2 1.0
G3 1.0
G4 1.0
G5 1.0
G6 1.0
G7 1.0
G8 1.0
G9 1.0
G10 1.0
G11 1.0
G12 1.0
G13 1.0
G14 1.0
G15 1.0
G16 1.0
G17 1.0
G18 1.0
G19 1.0
G20 1.0
G21 1.0
G22 1.0
G23 1.0
G24 1.0
G25 1.0
G26 1.0
G27 1.0
G28 1.0
G29 1.0
G30 1.0
G31 1.0
G32 1.0
G33 1.0
;
param RampDown:=
G1 1.0
G2 1.0
G3 1.0
G4 1.0
G5 1.0
G6 1.0
G7 1.0
G8 1.0
G9 1.0
G10 1.0
G11 1.0
G12 1.0
G13 1.0
G14 1.0
G15 1.0
G16 1.0
G17 1.0
G18 1.0
G19 1.0
G20 1.0
G21 1.0
G22 1.0
G23 1.0
G24 1.0
G25 1.0
G26 1.0
G27 1.0
G28 1.0
G29 1.0
G30 1.0
G31 1.0
G32 1.0
G33 1.0
;
param MinUpTime:=
G1 2.0
G2 2.0
G3 2.0
G4 2.0
G5 2.0
G6 2.0
G7 2.0
G8 2.0
G9 2.0
G10 2.0
G11 2.0
G12 2.0
G13 2.0
G14 2.0
G15 2.0
G16 2.0
G17 2.0
G18 2.0
G19 2.0
G20 2.0
G21 2.0
G22 2.0
G23 2.0
G24 2.0
G25 2.0
G26 2.0
G27 2.0
G28 2.0
G29 2.0
G30 2.0
G31 2.0
G32 2.0
G33 2.0
;
param MinDownTime:=
G1 2.0
G2 2.0
G3 2.0
G4 2.0
G5 2.0
G6 2.0
G7 2.0
G8 2.0
G9 2.0
G10 2.0
G11 2.0
G12 2.0
G13 2.0
G14 2.0
G15 2.0
G16 2.0
G17 2.0
G18 2.0
G19 2.0
G20 2.0
G21 2.0
G22 2.0
G23 2.0
G24 2.0
G25 2.0
G26 2.0
G27 2.0
G28 2.0
G29 2.0
G30 2.0
G31 2.0
G32 2.0
G33 2.0
;
param c2:=
G1 0.0
G2 0.0
G3 0.014141999999999998
G4 0.014141999999999998
G5 0.0
G6 0.0
G7 0.014141999999999998
G8 0.014141999999999998
G9 0.052672000000000004
G10 0.052672000000000004
G11 0.052672000000000004
G12 0.00717
G13 0.00717
G14 0.00717
G15 0.0
G16 0.328412
G17 0.328412
G18 0.328412
G19 0.328412
G20 0.328412
G21 0.008342
G22 0.008342
G23 0.000213
G24 0.000213
G25 0.0
G26 0.0
G27 0.0
G28 0.0
G29 0.0
G30 0.0
G31 0.008342
G32 0.008342
G33 0.004895
;
param c1:=
G1 130.0
G2 130.0
G3 16.0811
G4 16.0811
G5 130.0
G6 130.0
G7 16.0811
G8 16.0811
G9 43.6615
G10 43.6615
G11 43.6615
G12 48.5804
G13 48.5804
G14 48.5804
G15 0.0
G16 56.56399999999999
G17 56.56399999999999
G18 56.56399999999999
G19 56.56399999999999
G20 56.56399999999999
G21 12.3883
G22 12.3883
G23 4.4231
G24 4.4231
G25 0.001
G26 0.001
G27 0.001
G28 0.001
G29 0.001
G30 0.001
G31 12.3883
G32 12.3883
G33 11.8495
;
param c0:=
G1 400.6849
G2 400.6849
G3 212.3076
G4 212.3076
G5 400.6849
G6 400.6849
G7 212.3076
G8 212.3076
G9 781.5210000000001
G10 781.5210000000001
G11 781.5210000000001
G12 832.7575
G13 832.7575
G14 832.7575
G15 0.0
G16 86.3852
G17 86.3852
G18 86.3852
G19 86.3852
G20 86.3852
G21 382.2391
G22 382.2391
G23 395.3749
G24 395.3749
G25 0.001
G26 0.001
G27 0.001
G28 0.001
G29 0.001
G30 0.001
G31 382.2391
G32 382.2391
G33 665.1094
;
param SDcosts:=
G1 100
G2 100
G3 100
G4 100
G5 100
G6 100
G7 100
G8 100
G9 100
G10 100
G11 100
G12 100
G13 100
G14 100
G15 100
G16 100
G17 100
G18 100
G19 100
G20 100
G21 100
G22 100
G23 100
G24 100
G25 100
G26 100
G27 100
G28 100
G29 100
G30 100
G31 100
G32 100
G33 100
;
param SUcosts:=
G1 100
G2 100
G3 100
G4 100
G5 100
G6 100
G7 100
G8 100
G9 100
G10 100
G11 100
G12 100
G13 100
G14 100
G15 100
G16 100
G17 100
G18 100
G19 100
G20 100
G21 100
G22 100
G23 100
G24 100
G25 100
G26 100
G27 100
G28 100
G29 100
G30 100
G31 100
G32 100
G33 100
;
set UCMinUpT:=
G1 2 10
G1 3 10
G1 4 10
G1 5 10
G1 6 10
G1 7 10
G1 8 10
G1 9 10
G1 10 10
G2 2 10
G2 3 10
G2 4 10
G2 5 10
G2 6 10
G2 7 10
G2 8 10
G2 9 10
G2 10 10
G3 2 10
G3 3 10
G3 4 10
G3 5 10
G3 6 10
G3 7 10
G3 8 10
G3 9 10
G3 10 10
G4 2 10
G4 3 10
G4 4 10
G4 5 10
G4 6 10
G4 7 10
G4 8 10
G4 9 10
G4 10 10
G5 2 10
G5 3 10
G5 4 10
G5 5 10
G5 6 10
G5 7 10
G5 8 10
G5 9 10
G5 10 10
G6 2 10
G6 3 10
G6 4 10
G6 5 10
G6 6 10
G6 7 10
G6 8 10
G6 9 10
G6 10 10
G7 2 10
G7 3 10
G7 4 10
G7 5 10
G7 6 10
G7 7 10
G7 8 10
G7 9 10
G7 10 10
G8 2 10
G8 3 10
G8 4 10
G8 5 10
G8 6 10
G8 7 10
G8 8 10
G8 9 10
G8 10 10
G9 2 10
G9 3 10
G9 4 10
G9 5 10
G9 6 10
G9 7 10
G9 8 10
G9 9 10
G9 10 10
G10 2 10
G10 3 10
G10 4 10
G10 5 10
G10 6 10
G10 7 10
G10 8 10
G10 9 10
G10 10 10
G11 2 10
G11 3 10
G11 4 10
G11 5 10
G11 6 10
G11 7 10
G11 8 10
G11 9 10
G11 10 10
G12 2 10
G12 3 10
G12 4 10
G12 5 10
G12 6 10
G12 7 10
G12 8 10
G12 9 10
G12 10 10
G13 2 10
G13 3 10
G13 4 10
G13 5 10
G13 6 10
G13 7 10
G13 8 10
G13 9 10
G13 10 10
G14 2 10
G14 3 10
G14 4 10
G14 5 10
G14 6 10
G14 7 10
G14 8 10
G14 9 10
G14 10 10
G15 2 10
G15 3 10
G15 4 10
G15 5 10
G15 6 10
G15 7 10
G15 8 10
G15 9 10
G15 10 10
G16 2 10
G16 3 10
G16 4 10
G16 5 10
G16 6 10
G16 7 10
G16 8 10
G16 9 10
G16 10 10
G17 2 10
G17 3 10
G17 4 10
G17 5 10
G17 6 10
G17 7 10
G17 8 10
G17 9 10
G17 10 10
G18 2 10
G18 3 10
G18 4 10
G18 5 10
G18 6 10
G18 7 10
G18 8 10
G18 9 10
G18 10 10
G19 2 10
G19 3 10
G19 4 10
G19 5 10
G19 6 10
G19 7 10
G19 8 10
G19 9 10
G19 10 10
G20 2 10
G20 3 10
G20 4 10
G20 5 10
G20 6 10
G20 7 10
G20 8 10
G20 9 10
G20 10 10
G21 2 10
G21 3 10
G21 4 10
G21 5 10
G21 6 10
G21 7 10
G21 8 10
G21 9 10
G21 10 10
G22 2 10
G22 3 10
G22 4 10
G22 5 10
G22 6 10
G22 7 10
G22 8 10
G22 9 10
G22 10 10
G23 2 10
G23 3 10
G23 4 10
G23 5 10
G23 6 10
G23 7 10
G23 8 10
G23 9 10
G23 10 10
G24 2 10
G24 3 10
G24 4 10
G24 5 10
G24 6 10
G24 7 10
G24 8 10
G24 9 10
G24 10 10
G25 2 10
G25 3 10
G25 4 10
G25 5 10
G25 6 10
G25 7 10
G25 8 10
G25 9 10
G25 10 10
G26 2 10
G26 3 10
G26 4 10
G26 5 10
G26 6 10
G26 7 10
G26 8 10
G26 9 10
G26 10 10
G27 2 10
G27 3 10
G27 4 10
G27 5 10
G27 6 10
G27 7 10
G27 8 10
G27 9 10
G27 10 10
G28 2 10
G28 3 10
G28 4 10
G28 5 10
G28 6 10
G28 7 10
G28 8 10
G28 9 10
G28 10 10
G29 2 10
G29 3 10
G29 4 10
G29 5 10
G29 6 10
G29 7 10
G29 8 10
G29 9 10
G29 10 10
G30 2 10
G30 3 10
G30 4 10
G30 5 10
G30 6 10
G30 7 10
G30 8 10
G30 9 10
G30 10 10
G31 2 10
G31 3 10
G31 4 10
G31 5 10
G31 6 10
G31 7 10
G31 8 10
G31 9 10
G31 10 10
G32 2 10
G32 3 10
G32 4 10
G32 5 10
G32 6 10
G32 7 10
G32 8 10
G32 9 10
G32 10 10
G33 2 10
G33 3 10
G33 4 10
G33 5 10
G33 6 10
G33 7 10
G33 8 10
G33 9 10
G33 10 10
;
set UCMinDownT:=
G1 2 10
G1 3 10
G1 4 10
G1 5 10
G1 6 10
G1 7 10
G1 8 10
G1 9 10
G1 10 10
G2 2 10
G2 3 10
G2 4 10
G2 5 10
G2 6 10
G2 7 10
G2 8 10
G2 9 10
G2 10 10
G3 2 10
G3 3 10
G3 4 10
G3 5 10
G3 6 10
G3 7 10
G3 8 10
G3 9 10
G3 10 10
G4 2 10
G4 3 10
G4 4 10
G4 5 10
G4 6 10
G4 7 10
G4 8 10
G4 9 10
G4 10 10
G5 2 10
G5 3 10
G5 4 10
G5 5 10
G5 6 10
G5 7 10
G5 8 10
G5 9 10
G5 10 10
G6 2 10
G6 3 10
G6 4 10
G6 5 10
G6 6 10
G6 7 10
G6 8 10
G6 9 10
G6 10 10
G7 2 10
G7 3 10
G7 4 10
G7 5 10
G7 6 10
G7 7 10
G7 8 10
G7 9 10
G7 10 10
G8 2 10
G8 3 10
G8 4 10
G8 5 10
G8 6 10
G8 7 10
G8 8 10
G8 9 10
G8 10 10
G9 2 10
G9 3 10
G9 4 10
G9 5 10
G9 6 10
G9 7 10
G9 8 10
G9 9 10
G9 10 10
G10 2 10
G10 3 10
G10 4 10
G10 5 10
G10 6 10
G10 7 10
G10 8 10
G10 9 10
G10 10 10
G11 2 10
G11 3 10
G11 4 10
G11 5 10
G11 6 10
G11 7 10
G11 8 10
G11 9 10
G11 10 10
G12 2 10
G12 3 10
G12 4 10
G12 5 10
G12 6 10
G12 7 10
G12 8 10
G12 9 10
G12 10 10
G13 2 10
G13 3 10
G13 4 10
G13 5 10
G13 6 10
G13 7 10
G13 8 10
G13 9 10
G13 10 10
G14 2 10
G14 3 10
G14 4 10
G14 5 10
G14 6 10
G14 7 10
G14 8 10
G14 9 10
G14 10 10
G15 2 10
G15 3 10
G15 4 10
G15 5 10
G15 6 10
G15 7 10
G15 8 10
G15 9 10
G15 10 10
G16 2 10
G16 3 10
G16 4 10
G16 5 10
G16 6 10
G16 7 10
G16 8 10
G16 9 10
G16 10 10
G17 2 10
G17 3 10
G17 4 10
G17 5 10
G17 6 10
G17 7 10
G17 8 10
G17 9 10
G17 10 10
G18 2 10
G18 3 10
G18 4 10
G18 5 10
G18 6 10
G18 7 10
G18 8 10
G18 9 10
G18 10 10
G19 2 10
G19 3 10
G19 4 10
G19 5 10
G19 6 10
G19 7 10
G19 8 10
G19 9 10
G19 10 10
G20 2 10
G20 3 10
G20 4 10
G20 5 10
G20 6 10
G20 7 10
G20 8 10
G20 9 10
G20 10 10
G21 2 10
G21 3 10
G21 4 10
G21 5 10
G21 6 10
G21 7 10
G21 8 10
G21 9 10
G21 10 10
G22 2 10
G22 3 10
G22 4 10
G22 5 10
G22 6 10
G22 7 10
G22 8 10
G22 9 10
G22 10 10
G23 2 10
G23 3 10
G23 4 10
G23 5 10
G23 6 10
G23 7 10
G23 8 10
G23 9 10
G23 10 10
G24 2 10
G24 3 10
G24 4 10
G24 5 10
G24 6 10
G24 7 10
G24 8 10
G24 9 10
G24 10 10
G25 2 10
G25 3 10
G25 4 10
G25 5 10
G25 6 10
G25 7 10
G25 8 10
G25 9 10
G25 10 10
G26 2 10
G26 3 10
G26 4 10
G26 5 10
G26 6 10
G26 7 10
G26 8 10
G26 9 10
G26 10 10
G27 2 10
G27 3 10
G27 4 10
G27 5 10
G27 6 10
G27 7 10
G27 8 10
G27 9 10
G27 10 10
G28 2 10
G28 3 10
G28 4 10
G28 5 10
G28 6 10
G28 7 10
G28 8 10
G28 9 10
G28 10 10
G29 2 10
G29 3 10
G29 4 10
G29 5 10
G29 6 10
G29 7 10
G29 8 10
G29 9 10
G29 10 10
G30 2 10
G30 3 10
G30 4 10
G30 5 10
G30 6 10
G30 7 10
G30 8 10
G30 9 10
G30 10 10
G31 2 10
G31 3 10
G31 4 10
G31 5 10
G31 6 10
G31 7 10
G31 8 10
G31 9 10
G31 10 10
G32 2 10
G32 3 10
G32 4 10
G32 5 10
G32 6 10
G32 7 10
G32 8 10
G32 9 10
G32 10 10
G33 2 10
G33 3 10
G33 4 10
G33 5 10
G33 6 10
G33 7 10
G33 8 10
G33 9 10
G33 10 10
;
